52505
10,104,157,284,483,539,603,951,999,1051,1136,1143,1158,1288,1457,1571,1621,1623,1632,1846,1894,2154,2169,2287,2371,2430,2620,2744,2902,2959,2983,2988,3032,3034,3116,3215,3216,3424,3459,3553,3562,3644,3751,3807,3858,3896,3925,4016,4078,4183,4213,4232,4382,4431,4432,4509,4512,4697,4740,4809,4810,4818,5024,5039,5057,5079,5100,5177,5214,5223,5274,5327,5356,5367,5433,5459,5476,5496,5604,5611,5705,5741,5776,5873,5945,5999,6062,6096,6290,6602,6639,6753,6775,7068,7069,7097,7283,7284,7482,7566,7844,7847,7871,7889,8050,8146,8238,8249,8370,8381,8557,8579,8702,8774,8847,8851,8988,9094,9132,9271,9272,9339,9454,9571,9603,9617,9642,9680,9971
